10
19
0 137 27 17 178 78 2 120 25 52 79 6 154 55 69 102 95 20 182
23
0 164 32 23 10 82 18 71 186 58 75 44 147 187 115 101 19 50 24 11 158 195 26
21
0 70 179 111 114 38 87 167 88 62 49 156 116 170 127 124 12 14 165 85 132
18
0 123 105 22 151 90 200 76 166 15 122 112 119 176 104 98 94 36
24
0 169 64 41 8 1 190 163 107 77 142 177 150 199 53 160 81 103 39 198 99 189 134 42
20
0 43 84 66 152 183 83 97 131 157 185 93 196 193 30 192 74 110 172 73
22
0 51 46 5 140 146 7 149 118 86 68 168 139 34 174 188 161 67 61 48 91 129
20
0 59 21 57 184 72 16 47 113 143 117 29 130 80 37 159 126 108 173 148
20
0 65 136 175 13 3 63 138 9 171 155 153 92 96 31 144 180 89 181 60
23
0 4 162 197 128 54 125 100 109 121 45 33 106 191 40 35 141 145 56 135 133 194 28
